Solver command line: ['/usr/local/bin/gurobi.sh']

Set parameter WLSAccessID
Set parameter WLSSecret
Set parameter LicenseID to value 2606900
Academic license 2606900 - for non-commercial use only - registered to so___@htwk-leipzig.de
Read LP format model from file /var/folders/jf/5sh4zzv94dxbcz8g7tg2jq5h0000gn/T/tmphdlk9yfs.pyomo.lp
Reading time = 3.81 seconds
objective: 939890 rows, 878399 columns, 2090576 nonzeros
Set parameter TimeLimit to value 5000
Set parameter MIPGap to value 0.08
Gurobi Optimizer version 12.0.1 build v12.0.1rc0 (mac64[rosetta2] - Darwin 24.3.0 24D70)

CPU model: Apple M3
Thread count: 8 physical cores, 8 logical processors, using up to 8 threads

Non-default parameters:
TimeLimit  5000
MIPGap  0.08

Academic license 2606900 - for non-commercial use only - registered to so___@htwk-leipzig.de
Optimize a model with 939890 rows, 878399 columns and 2090576 nonzeros
Model fingerprint: 0x7df4ac49
Model has 8783 quadratic constraints
Variable types: 755424 continuous, 122975 integer (105408 binary)
Coefficient statistics:
  Matrix range     [6e-03, 1e+03]
  QMatrix range    [1e+00, 1e+00]
  Objective range  [1e-02, 3e+02]
  Bounds range     [1e+00, 3e+00]
  RHS range        [8e-05, 1e+04]
Presolve removed 773016 rows and 676389 columns
Presolve time: 0.84s
Presolved: 166874 rows, 202010 columns, 553336 nonzeros
Variable types: 131741 continuous, 70269 integer (61485 binary)
Performing another presolve...
Presolve removed 70271 rows and 70271 columns (presolve time = 7s)...
Presolve removed 70271 rows and 70271 columns
Presolve time: 7.27s
Deterministic concurrent LP optimizer: primal and dual simplex
Showing primal log only...


Root simplex log...

Iteration    Objective       Primal Inf.    Dual Inf.      Time
       0   -5.3793324e+05   1.229809e+08   8.557073e+13     10s
Concurrent spin time: 12.24s (can be avoided by choosing Method=3)

Solved with dual simplex

Root simplex log...

Iteration    Objective       Primal Inf.    Dual Inf.      Time
   70944   -5.2849892e+07   0.000000e+00   0.000000e+00     23s

Root relaxation: objective -5.284989e+07, 70944 iterations, 14.29 seconds (1.79 work units)
Total elapsed time = 23.48s (DegenMoves)

    Nodes    |    Current Node    |     Objective Bounds      |     Work
 Expl Unexpl |  Obj  Depth IntInf | Incumbent    BestBd   Gap | It/Node Time

     0     0 -5.285e+07    0  435          - -5.285e+07      -     -   26s
     0     0 -5.284e+07    0  525          - -5.284e+07      -     -   59s
     0     0 -5.284e+07    0  502          - -5.284e+07      -     -   60s
     0     0 -5.284e+07    0  506          - -5.284e+07      -     -   60s
     0     0 -5.284e+07    0  461          - -5.284e+07      -     -   61s
     0     0 -5.284e+07    0  470          - -5.284e+07      -     -   63s
     0     0 -5.284e+07    0  474          - -5.284e+07      -     -   63s
     0     0 -5.284e+07    0  473          - -5.284e+07      -     -   63s
     0     0 -5.284e+07    0  513          - -5.284e+07      -     -   64s
     0     0 -5.284e+07    0  515          - -5.284e+07      -     -   66s
     0     0 -5.284e+07    0  514          - -5.284e+07      -     -   66s
     0     0 -5.283e+07    0  516          - -5.283e+07      -     -   67s
     0     0 -5.283e+07    0  522          - -5.283e+07      -     -   68s
     0     0 -5.283e+07    0  519          - -5.283e+07      -     -   68s
     0     0 -5.283e+07    0  522          - -5.283e+07      -     -   69s
     0     0 -5.283e+07    0  524          - -5.283e+07      -     -   70s
     0     0 -5.283e+07    0  527          - -5.283e+07      -     -   70s
     0     0 -5.283e+07    0  546          - -5.283e+07      -     -   71s
     0     0 -5.283e+07    0  555          - -5.283e+07      -     -   71s
     0     0 -5.283e+07    0  555          - -5.283e+07      -     -   71s
     0     0 -5.283e+07    0  536          - -5.283e+07      -     -   72s
     0     0 -5.283e+07    0  538          - -5.283e+07      -     -   73s
     0     0 -5.283e+07    0  538          - -5.283e+07      -     -   73s
     0     0 -5.283e+07    0  534          - -5.283e+07      -     -   74s
     0     0 -5.283e+07    0  437          - -5.283e+07      -     -   76s
     0     2 -5.283e+07    0  425          - -5.283e+07      -     -   89s
     7    16 -5.283e+07    3  459          - -5.283e+07      -   310   90s
   137   362 -5.283e+07   13  476          - -5.283e+07      -  39.2   98s
   361   775 -5.283e+07   34  476          - -5.283e+07      -  18.7  108s
   774  1805 -5.283e+07   61  476          - -5.283e+07      -  10.9  124s
  1804  2323 -5.283e+07  163  469          - -5.283e+07      -   8.4  134s
  2322  2772 -5.283e+07  210  454          - -5.283e+07      -   8.4  142s
  2771  3264 -5.283e+07  260  449          - -5.283e+07      -   8.4  148s
  3263  3717 -5.283e+07  306  427          - -5.283e+07      -   8.6  154s
  3716  4081 -5.283e+07  357  421          - -5.283e+07      -   8.1  160s
  4080  4589 -5.283e+07  395  425          - -5.283e+07      -   8.1  166s
  4588  5268 -5.283e+07  448  403          - -5.283e+07      -   7.8  173s
  5267  6002 -5.282e+07  535  404          - -5.283e+07      -   7.3  179s
  6001  6591 -5.282e+07  666  401          - -5.283e+07      -   6.8  185s
  6590  7270 -5.282e+07  728  387          - -5.283e+07      -   6.5  190s
  7272  7272 -5.282e+07  775  439          - -5.283e+07      -   6.2  236s
  7273  7273 -5.283e+07  147  487          - -5.283e+07      -   6.2  240s
  7279  7277 -5.283e+07  403  514          - -5.283e+07      -   6.2  245s
  7286  7282 -5.283e+07   19  547          - -5.283e+07      -   6.2  250s
  7292  7286 -5.283e+07  121  572          - -5.283e+07      -   6.2  255s
  7300  7291 -5.283e+07   18  603          - -5.283e+07      -   6.2  260s
  7306  7295 -5.283e+07  228  602          - -5.283e+07      -   6.2  265s
  7310  7298 -5.283e+07  324  619          - -5.283e+07      -   6.2  270s
  7314  7300 -5.283e+07  188  626          - -5.283e+07      -   6.2  276s
  7316  7302 -5.283e+07  502  626          - -5.283e+07      -   6.2  280s
  7322  7307 -5.283e+07  424  439          - -5.283e+07      -  18.3  327s
  7323  7308 -5.283e+07  128  473          - -5.283e+07      -  18.3  330s
  7331  7313 -5.283e+07  304  571          - -5.283e+07      -  18.3  335s
  7336  7317 -5.283e+07   50  584          - -5.283e+07      -  18.3  341s
  7339  7319 -5.281e+07  735  601          - -5.283e+07      -  18.3  345s
  7343  7321 -5.282e+07  676  612          - -5.283e+07      -  18.3  350s
  7346  7323 -5.283e+07  343  607          - -5.283e+07      -  18.3  355s
  7351  7327 -5.283e+07  294  497          - -5.283e+07      -  18.3  364s
  7352  7327 -5.283e+07  182  497          - -5.283e+07      -  18.3  372s
  7353  7331 -5.283e+07   29  465          - -5.283e+07      -  42.1  375s
H 7356  6967                    -4.91123e+07 -5.283e+07  7.57%  42.1  377s

Cutting planes:
  Learned: 7
  Gomory: 293
  Cover: 248
  Implied bound: 114
  Projected implied bound: 65
  MIR: 535
  Mixing: 6
  Flow cover: 305
  RLT: 12
  Relax-and-lift: 55

Explored 7359 nodes (309507 simplex iterations) in 377.93 seconds (186.75 work units)
Thread count was 8 (of 8 available processors)

Solution count 1: -4.91123e+07 

Optimal solution found (tolerance 8.00e-02)
Best objective -4.911228899213e+07, best bound -5.282975918873e+07, gap 7.5693%

